(set-logic HORN)
(declare-fun state (Int Int (Array Int Int) Int (Array Int Int) Int (Array Int Int) Bool Bool Int Int Int Int Int) Bool)
(assert (forall ((|main@%tmp8.i_0_3| Int) (|main@%tmp10.i_0_3| Int) (|main@%shadow.mem.0_0_3| (Array Int Int)) (|main@%tmp2.i_0_3| Int) (|.y.10| (Array Int Int)) (|main@%i.1.i_0_1| Int) (|main@%shadow.mem1.1_0_1| (Array Int Int)) (|.loc.11| Bool) (|.loc.12| Bool) (|main@%tmp54.i_0| Int) (|main@%tmp45.i_0| Int) (|main@%tmp58.i_0| Int) (|main@%tmp60.i_0| Int) (|main@%tmp61.i_0| Int) (|.loc.20| Bool) (|.y.16| Int) (|.y.15| (Array Int Int)) (|.y.14| Int) (|.y.19| (Array Int Int)) (|.y.18| Int) (|.y.13| Int) (|.loc.21| Bool) (|.y.17| (Array Int Int)) (|.xtv.1| Int) (|.xtv.2| Int) (|.xtv.3| Int) (|.xtv.4| Int) (|.xtv.5| Int)) (=> (and (not .loc.11) (not .loc.12)) (state |main@%tmp8.i_0_3| |main@%tmp10.i_0_3| |main@%shadow.mem.0_0_3| |main@%tmp2.i_0_3| |.y.10| |main@%i.1.i_0_1| |main@%shadow.mem1.1_0_1| |.loc.11| |.loc.12| |main@%tmp54.i_0| |main@%tmp45.i_0| |main@%tmp58.i_0| |main@%tmp60.i_0| |main@%tmp61.i_0|))))
(assert (forall ((|main@%tmp8.i_0_3| Int) (|main@%tmp10.i_0_3| Int) (|main@%shadow.mem.0_0_3| (Array Int Int)) (|main@%tmp2.i_0_3| Int) (|.y.10| (Array Int Int)) (|main@%i.1.i_0_1| Int) (|main@%shadow.mem1.1_0_1| (Array Int Int)) (|.loc.11| Bool) (|.loc.12| Bool) (|main@%tmp54.i_0| Int) (|main@%tmp45.i_0| Int) (|main@%tmp58.i_0| Int) (|main@%tmp60.i_0| Int) (|main@%tmp61.i_0| Int) (|.loc.20| Bool) (|.y.16| Int) (|.y.15| (Array Int Int)) (|.y.14| Int) (|.y.19| (Array Int Int)) (|.y.18| Int) (|.y.13| Int) (|.loc.21| Bool) (|.y.17| (Array Int Int)) (|.xtv.1| Int) (|.xtv.2| Int) (|.xtv.3| Int) (|.xtv.4| Int) (|.xtv.5| Int)) (=> (and (state |main@%tmp8.i_0_3| |main@%tmp10.i_0_3| |main@%shadow.mem.0_0_3| |main@%tmp2.i_0_3| |.y.10| |main@%i.1.i_0_1| |main@%shadow.mem1.1_0_1| |.loc.11| |.loc.12| |main@%tmp54.i_0| |main@%tmp45.i_0| |main@%tmp58.i_0| |main@%tmp60.i_0| |main@%tmp61.i_0|) (let ((.def_24 (not .loc.11))) (let ((.def_25 (not .loc.12))) (let ((.def_34 (<= main@%tmp10.i_0_3 0))) (let ((.def_50 (* (- 1) main@%tmp54.i_0))) (let ((.def_60 (<= main@%tmp2.i_0_3 main@%i.1.i_0_1))) (let ((.def_66 (<= main@%tmp8.i_0_3 0))) (let ((.def_67 (or (not (<= main@%tmp54.i_0 0)) .def_66))) (let ((.def_69 (not .def_66))) (let ((.def_75 (not .def_34))) (let ((.def_92 (not .loc.20))) (let ((.def_97 (<= main@%i.1.i_0_1 main@%tmp10.i_0_3))) (let ((.def_100 (= main@%tmp8.i_0_3 .y.13))) (let ((.def_154 (= main@%tmp2.i_0_3 .y.16))) (let ((.def_168 (not .loc.21))) (let ((.def_176 (<= main@%tmp2.i_0_3 0))) (or (or (and (or (or (and (and .def_24 (and .loc.12 (and (not (= (select main@%shadow.mem1.1_0_1 main@%tmp54.i_0) (select main@%shadow.mem.0_0_3 main@%tmp61.i_0))) (and (and (or (not (<= main@%tmp61.i_0 0)) .def_34) (and (= (+ main@%tmp10.i_0_3 (+ main@%tmp60.i_0 (* (- 1) main@%tmp61.i_0))) 0) (and (= (+ main@%tmp45.i_0 (+ (* (- 1) main@%tmp58.i_0) main@%tmp60.i_0)) 0) (and (= (+ main@%tmp2.i_0_3 (* (- 1) main@%tmp58.i_0)) 1) (and (and (and (= (+ main@%tmp8.i_0_3 (+ .def_50 main@%tmp45.i_0)) 0) (and (not (<= main@%tmp2.i_0_3 main@%tmp45.i_0)) (and (not (<= main@%tmp45.i_0 (- 1))) .def_60))) .def_67) .def_69))))) .def_75)))) .loc.20) (and (= main@%i.1.i_0_1 .y.16) (and (= .y.10 .y.15) (and (= main@%tmp2.i_0_3 .y.14) (and (and (and (= main@%shadow.mem.0_0_3 .y.19) (and (= .y.18 0) (and .def_25 (and .loc.11 .def_92)))) .def_97) .def_100))))) (and (and (= main@%shadow.mem.0_0_3 .y.15) (and (= main@%tmp10.i_0_3 .y.14) (and (or .def_66 (not (<= main@%tmp60.i_0 0))) (and (= (+ main@%tmp8.i_0_3 (+ main@%i.1.i_0_1 (* (- 1) main@%tmp60.i_0))) 0) (and (or .def_34 (not (<= main@%tmp45.i_0 0))) (and (= (+ main@%tmp10.i_0_3 (+ (* (- 1) main@%tmp45.i_0) main@%tmp58.i_0)) 0) (and (= (+ main@%i.1.i_0_1 (+ .def_50 main@%tmp58.i_0)) 0) (and (= (+ main@%tmp2.i_0_3 .def_50) 1) (and (= .y.19 (store main@%shadow.mem1.1_0_1 main@%tmp60.i_0 (select main@%shadow.mem.0_0_3 main@%tmp45.i_0))) (and (= (+ main@%i.1.i_0_1 (* (- 1) .y.18)) (- 1)) (and .def_100 (and .def_92 (and .def_24 (and .loc.12 (and .def_75 (and .def_69 (not .def_60))))))))))))))))) .def_154)) .loc.21) (and (not (<= .y.18 0)) (and (not (<= .y.13 0)) (and (not (<= .y.16 0)) (and (= .y.14 0) (and (and .def_25 (and .def_24 .loc.20)) .def_168)))))) (and (= main@%i.1.i_0_1 .y.18) (and (not .def_176) (and (or .def_176 (not (<= main@%tmp58.i_0 0))) (and (= (+ main@%tmp10.i_0_3 (+ main@%tmp2.i_0_3 (* (- 1) main@%tmp58.i_0))) 0) (and (not .def_97) (and (= (+ main@%tmp8.i_0_3 (+ main@%tmp10.i_0_3 .def_50)) 0) (and (= .y.15 (store main@%shadow.mem.0_0_3 main@%tmp54.i_0 main@%tmp45.i_0)) (and (= (store .y.10 main@%tmp58.i_0 main@%tmp45.i_0) .y.17) (and (= (+ main@%tmp10.i_0_3 (* (- 1) .y.14)) (- 1)) (and .def_168 (and .def_154 (and .def_100 (and .def_25 (and .loc.20 (and .loc.11 (and .def_67 .def_69))))))))))))))))))))))))))))))))) (state |.y.13| |.y.14| |.y.15| |.y.16| |.y.17| |.y.18| |.y.19| |.loc.20| |.loc.21| |.xtv.1| |.xtv.2| |.xtv.3| |.xtv.4| |.xtv.5|))))
(assert (forall ((|main@%tmp8.i_0_3| Int) (|main@%tmp10.i_0_3| Int) (|main@%shadow.mem.0_0_3| (Array Int Int)) (|main@%tmp2.i_0_3| Int) (|.y.10| (Array Int Int)) (|main@%i.1.i_0_1| Int) (|main@%shadow.mem1.1_0_1| (Array Int Int)) (|.loc.11| Bool) (|.loc.12| Bool) (|main@%tmp54.i_0| Int) (|main@%tmp45.i_0| Int) (|main@%tmp58.i_0| Int) (|main@%tmp60.i_0| Int) (|main@%tmp61.i_0| Int) (|.loc.20| Bool) (|.y.16| Int) (|.y.15| (Array Int Int)) (|.y.14| Int) (|.y.19| (Array Int Int)) (|.y.18| Int) (|.y.13| Int) (|.loc.21| Bool) (|.y.17| (Array Int Int)) (|.xtv.1| Int) (|.xtv.2| Int) (|.xtv.3| Int) (|.xtv.4| Int) (|.xtv.5| Int)) (=> (state |main@%tmp8.i_0_3| |main@%tmp10.i_0_3| |main@%shadow.mem.0_0_3| |main@%tmp2.i_0_3| |.y.10| |main@%i.1.i_0_1| |main@%shadow.mem1.1_0_1| |.loc.11| |.loc.12| |main@%tmp54.i_0| |main@%tmp45.i_0| |main@%tmp58.i_0| |main@%tmp60.i_0| |main@%tmp61.i_0|) (not (and .loc.11 .loc.12)))))
(check-sat)
